176	32	4	77	
10	10	10	10

0	0	0	0	0	0	6	1	2	3	4	5	15
1	0	1	1	1	9	4	20	8	7	6
2	1	6	4	0	7	4	20	13	7	6
3	6	0	3	5	6	3	20	7	6
4	3	0	1	2	1	3	20	7	6
5	6	4	0	9	7	1	6
6	4	2	0	1	10	5	30	19	17	10	9
7	4	0	6	5	6	3	30	11	10
8	6	7	0	2	7	5	29	27	26	24	12
9	4	0	3	3	9	3	18	16	11
10	4	8	0	2	2	6	28	25	24	22	18	16
11	1	1	8	0	4	3	24	21	14
12	2	0	2	2	9	4	28	22	19	18
13	5	4	5	0	9	5	29	26	25	23	22
14	3	3	7	0	8	4	27	26	25	22
15	0	3	3	4	3	3	24	23	21
16	6	1	5	0	4	2	23	21
17	5	0	2	6	4	2	29	22
18	8	5	10	0	4	1	23
19	3	3	0	7	3	1	21
20	4	5	4	0	3	1	21
21	4	4	0	3	7	1	31
22	0	5	4	3	2	1	31
23	3	4	0	6	6	1	31
24	3	8	2	0	1	1	31
25	0	2	2	2	10	1	31
26	3	4	7	0	10	1	31
27	3	6	0	6	9	1	31
28	7	3	0	8	9	1	31
29	3	3	3	0	2	1	31
30	3	0	2	3	5	1	31
31	0	0	0	0	0	0
